p cnf 55 175
-3 1 0
-3 2 0
-1 -2 3 0
5 -4 0
5 -4 0
4 -5 0
-7 -4 -8 0
7 4 -8 0
-7 4 8 0
7 -4 8 0
6 -8 -9 0
-6 8 -9 0
6 8 9 0
-6 -8 9 0
-11 9 0
-11 -10 0
-9 10 11 0
12 -13 -14 0
-12 13 -14 0
12 13 14 0
-12 -13 14 0
-11 14 -15 0
11 -14 -15 0
-11 -14 15 0
11 14 15 0
-5 -15 -16 0
5 15 -16 0
-5 15 16 0
5 -15 16 0
-17 -6 -18 0
17 6 -18 0
-17 6 18 0
17 -6 18 0
20 -18 0
20 19 0
18 -19 -20 0
-20 -21 -22 0
20 21 -22 0
-20 21 22 0
20 -21 22 0
16 -22 -23 0
-16 22 -23 0
16 22 23 0
-16 -22 23 0
24 18 0
24 8 0
-18 -8 -24 0
19 4 -25 0
-19 -4 -25 0
19 -4 25 0
-19 4 25 0
24 -25 -26 0
-24 25 -26 0
24 25 26 0
-24 -25 26 0
-18 11 -27 0
18 -11 -27 0
-18 -11 27 0
18 11 27 0
4 -28 -29 0
-4 28 -29 0
4 28 29 0
-4 -28 29 0
31 30 0
31 8 0
-30 -8 -31 0
29 31 -32 0
-29 -31 -32 0
29 -31 32 0
-29 31 32 0
33 -27 0
33 -32 0
27 32 -33 0
-34 26 0
-34 33 0
-26 -33 34 0
23 34 -35 0
-23 -34 -35 0
23 -34 35 0
-23 34 35 0
36 -9 0
36 -20 0
9 20 -36 0
37 -19 0
37 36 0
19 -36 -37 0
-10 -36 -38 0
10 36 -38 0
-10 36 38 0
10 -36 38 0
12 38 -39 0
-12 -38 -39 0
12 -38 39 0
-12 38 39 0
30 39 -40 0
-30 -39 -40 0
30 -39 40 0
-30 39 40 0
41 -37 0
41 40 0
37 -40 -41 0
-42 -8 0
-42 -10 0
8 10 42 0
43 42 0
43 9 0
-42 -9 -43 0
18 -43 -44 0
-18 43 -44 0
18 43 44 0
-18 -43 44 0
45 39 0
45 44 0
-39 -44 -45 0
46 -41 0
46 45 0
41 -45 -46 0
-47 35 0
-47 -46 0
-35 46 47 0
44 48 -49 0
-44 -48 -49 0
44 -48 49 0
-44 48 49 0
4 -12 -50 0
-4 12 -50 0
4 12 50 0
-4 -12 50 0
-49 50 -51 0
49 -50 -51 0
-49 -50 51 0
49 50 51 0
52 47 0
52 -51 0
-47 51 -52 0
-53 30 0
-53 -1 0
-30 1 53 0
-54 -52 0
-54 53 0
52 -53 54 0
3 -54 -55 0
-3 54 -55 0
3 54 55 0
-3 -54 55 0
54 -41 3 14 44 0
-41 6 -36 -16 0
13 -48 -4 -37 0
-15 8 -36 -26 0
-9 54 16 0
-28 38 42 -54 0
-49 2 -20 39 0
32 23 -20 -29 -12 5 0
18 -20 -53 55 0
29 -16 0
11 -28 0
-52 15 46 44 0
9 47 -15 49 0
32 -29 -50 34 -21 0
-8 35 -22 29 0
34 -21 -5 -16 22 -12 0
-31 -13 46 40 0
-36 -31 2 16 0
-13 15 12 0
-15 46 -11 45 0
-33 50 0
-28 16 25 -3 -31 0
52 -9 34 -50 10 0
34 51 -1 -31 0
20 -19 3 50 0
52 36 -4 38 0
-28 -11 -53 43 0
-48 53 -7 -17 40 0
11 38 0
55 0
